n = 59;
rows = 141;
supports = [|
  {1},{1},
 |{1},19..42,
 |{2},{2},
 |{2},20..43,
 |{3},{3},
 |{3},21..44,
 |{4},{4},
 |{4},22..45,
 |{5},{5},
 |{5},23..46,
 |{6},{6},
 |{6},24..47,
 |{7},{7},
 |{7},25..48,
 |{8},{8},
 |{8},26..49,
 |{9},{9},
 |{9},27..50,
 |{10},{10},
 |{10},28..51,
 |{11},{11},
 |{11},29..52,
 |{12},{12},
 |{12},30..53,
 |{13},{13},
 |{13},31..54,
 |{14},{14},
 |{14},32..55,
 |{15},{15},
 |{15},33..56,
 |{16},{16},
 |{16},34..57,
 |{17},{17},
 |{17},35..58,
 |{18},{18},
 |{18},36..59,
 |{19},{19},
 |{19},{1},
 |{19},37..59,
 |{20},{20},
 |{20},1..2,
 |{20},38..59,
 |{21},{21},
 |{21},1..3,
 |{21},39..59,
 |{22},{22},
 |{22},1..4,
 |{22},40..59,
 |{23},{23},
 |{23},1..5,
 |{23},41..59,
 |{24},{24},
 |{24},1..6,
 |{24},42..59,
 |{25},{25},
 |{25},1..7,
 |{25},43..59,
 |{26},{26},
 |{26},1..8,
 |{26},44..59,
 |{27},{27},
 |{27},1..9,
 |{27},45..59,
 |{28},{28},
 |{28},1..10,
 |{28},46..59,
 |{29},{29},
 |{29},1..11,
 |{29},47..59,
 |{30},{30},
 |{30},1..12,
 |{30},48..59,
 |{31},{31},
 |{31},1..13,
 |{31},49..59,
 |{32},{32},
 |{32},1..14,
 |{32},50..59,
 |{33},{33},
 |{33},1..15,
 |{33},51..59,
 |{34},{34},
 |{34},1..16,
 |{34},52..59,
 |{35},{35},
 |{35},1..17,
 |{35},53..59,
 |{36},{36},
 |{36},1..18,
 |{36},54..59,
 |{37},{37},
 |{37},1..19,
 |{37},55..59,
 |{38},{38},
 |{38},1..20,
 |{38},56..59,
 |{39},{39},
 |{39},1..21,
 |{39},57..59,
 |{40},{40},
 |{40},1..22,
 |{40},58..59,
 |{41},{41},
 |{41},1..23,
 |{41},{59},
 |{42},{42},
 |{42},1..24,
 |{43},{43},
 |{43},2..25,
 |{44},{44},
 |{44},3..26,
 |{45},{45},
 |{45},4..27,
 |{46},{46},
 |{46},5..28,
 |{47},{47},
 |{47},6..29,
 |{48},{48},
 |{48},7..30,
 |{49},{49},
 |{49},8..31,
 |{50},{50},
 |{50},9..32,
 |{51},{51},
 |{51},10..33,
 |{52},{52},
 |{52},11..34,
 |{53},{53},
 |{53},12..35,
 |{54},{54},
 |{54},13..36,
 |{55},{55},
 |{55},14..37,
 |{56},{56},
 |{56},15..38,
 |{57},{57},
 |{57},16..39,
 |{58},{58},
 |{58},17..40,
 |{59},{59},
 |{59},18..41 |];

t = 281;

indexes = [|
    0,3,
  | 0,8,
  | 0,45,
  | 1,13,
  | 1,23,
  | 1,49,
  | 2,16,
  | 2,21,
  | 2,22,
  | 2,24,
  | 2,30,
  | 2,44,
  | 2,51,
  | 2,54,
  | 2,57,
  | 3,34,
  | 4,10,
  | 4,17,
  | 4,18,
  | 4,19,
  | 4,20,
  | 4,21,
  | 4,26,
  | 4,28,
  | 4,33,
  | 4,36,
  | 4,40,
  | 4,41,
  | 4,42,
  | 4,47,
  | 4,48,
  | 4,53,
  | 4,55,
  | 5,28,
  | 5,33,
  | 5,37,
  | 5,42,
  | 5,44,
  | 5,55,
  | 5,56,
  | 6,16,
  | 6,22,
  | 6,24,
  | 6,30,
  | 6,31,
  | 6,36,
  | 6,53,
  | 6,54,
  | 6,57,
  | 7,25,
  | 7,28,
  | 7,33,
  | 7,42,
  | 7,44,
  | 7,51,
  | 7,56,
  | 8,10,
  | 8,19,
  | 8,20,
  | 8,29,
  | 8,41,
  | 8,46,
  | 8,47,
  | 8,53,
  | 9,28,
  | 9,33,
  | 9,38,
  | 9,40,
  | 9,42,
  | 9,44,
  | 9,56,
  | 10,19,
  | 10,20,
  | 10,29,
  | 10,41,
  | 10,43,
  | 10,47,
  | 10,53,
  | 11,24,
  | 11,48,
  | 12,17,
  | 12,18,
  | 12,19,
  | 12,20,
  | 12,21,
  | 12,26,
  | 12,28,
  | 12,33,
  | 12,36,
  | 12,40,
  | 12,41,
  | 12,42,
  | 12,47,
  | 12,52,
  | 12,53,
  | 12,55,
  | 12,56,
  | 13,17,
  | 13,18,
  | 13,19,
  | 13,20,
  | 13,21,
  | 13,26,
  | 13,28,
  | 13,33,
  | 13,36,
  | 13,40,
  | 13,41,
  | 13,42,
  | 13,44,
  | 13,47,
  | 13,53,
  | 13,55,
  | 14,17,
  | 14,18,
  | 14,19,
  | 14,20,
  | 14,21,
  | 14,26,
  | 14,28,
  | 14,33,
  | 14,36,
  | 14,40,
  | 14,41,
  | 14,42,
  | 14,43,
  | 14,47,
  | 14,53,
  | 14,55,
  | 15,25,
  | 15,28,
  | 15,32,
  | 15,33,
  | 15,42,
  | 15,44,
  | 15,56,
  | 16,22,
  | 16,24,
  | 16,30,
  | 16,31,
  | 16,33,
  | 16,34,
  | 16,35,
  | 16,54,
  | 16,56,
  | 16,57,
  | 16,58,
  | 17,22,
  | 17,29,
  | 17,45,
  | 18,20,
  | 18,21,
  | 18,27,
  | 18,45,
  | 18,51,
  | 19,20,
  | 19,41,
  | 19,42,
  | 19,45,
  | 19,46,
  | 19,47,
  | 19,49,
  | 19,53,
  | 20,37,
  | 20,45,
  | 20,46,
  | 20,47,
  | 20,49,
  | 20,53,
  | 21,45,
  | 21,47,
  | 22,23,
  | 22,24,
  | 22,30,
  | 22,31,
  | 22,34,
  | 22,35,
  | 22,54,
  | 22,56,
  | 22,57,
  | 24,30,
  | 24,31,
  | 24,34,
  | 24,35,
  | 24,42,
  | 24,54,
  | 24,56,
  | 24,57,
  | 25,28,
  | 25,33,
  | 25,42,
  | 25,44,
  | 25,56,
  | 26,30,
  | 26,45,
  | 26,47,
  | 26,51,
  | 26,58,
  | 27,28,
  | 27,33,
  | 27,37,
  | 27,42,
  | 27,44,
  | 27,56,
  | 27,57,
  | 28,32,
  | 28,38,
  | 28,45,
  | 28,54,
  | 28,57,
  | 28,58,
  | 29,46,
  | 29,48,
  | 29,49,
  | 30,31,
  | 30,34,
  | 30,35,
  | 30,50,
  | 30,54,
  | 30,56,
  | 30,57,
  | 31,37,
  | 31,39,
  | 31,54,
  | 31,57,
  | 32,33,
  | 32,38,
  | 32,42,
  | 32,44,
  | 32,56,
  | 33,38,
  | 33,45,
  | 33,54,
  | 33,58,
  | 34,54,
  | 34,56,
  | 34,57,
  | 35,40,
  | 35,41,
  | 35,54,
  | 35,57,
  | 36,41,
  | 36,45,
  | 36,51,
  | 36,54,
  | 37,51,
  | 37,55,
  | 37,58,
  | 38,42,
  | 38,44,
  | 38,56,
  | 39,43,
  | 40,44,
  | 40,45,
  | 40,51,
  | 41,44,
  | 41,45,
  | 41,46,
  | 41,49,
  | 41,53,
  | 42,45,
  | 42,54,
  | 42,58,
  | 44,54,
  | 44,58,
  | 45,47,
  | 45,53,
  | 45,55,
  | 46,47,
  | 46,49,
  | 46,52,
  | 46,53,
  | 47,49,
  | 49,53,
  | 50,52,
  | 51,55,
  | 53,55,
  | 54,56,
  | 54,57,
  | 56,57,
  | 56,58 |];

